Mack/Bortfeldt(2008)
Bin-Packing-Problem
BP-RG/SBSBPP/SSSCSP
Testcase-ID	8
Problem-ID	118
no_item_types	535
no_items	1334
CONTAINER_DATA (l,w,h)	587	233	1
ITEMS_DATA:
Type	x	y	z	no_items
1	60	48	1	1
2	60	46	1	2
3	57	47	1	2
4	58	46	1	1
5	57	46	1	1
6	59	42	1	4
7	60	41	1	4
8	51	47	1	3
9	51	46	1	2
10	50	46	1	3
11	57	40	1	2
12	58	39	1	1
13	48	47	1	5
14	50	45	1	2
15	57	39	1	4
16	48	46	1	1
17	50	44	1	1
18	56	39	1	3
19	52	42	1	3
20	57	38	1	3
21	48	45	1	2
22	51	42	1	2
23	53	40	1	1
24	49	43	1	6
25	50	42	1	5
26	58	36	1	2
27	52	40	1	3
28	56	37	1	2
29	59	35	1	3
30	48	43	1	1
31	56	36	1	5
32	49	41	1	4
33	50	40	1	3
34	60	33	1	4
35	48	41	1	4
36	49	40	1	2
37	59	33	1	1
38	54	36	1	3
39	44	44	1	5
40	46	42	1	1
41	47	41	1	4
42	48	40	1	1
43	58	33	1	3
44	44	43	1	2
45	48	39	1	2
46	50	37	1	2
47	43	43	1	4
48	44	42	1	2
49	54	34	1	1
50	48	38	1	2
51	52	35	1	1
52	50	36	1	1
53	56	32	1	1
54	48	37	1	2
55	45	39	1	3
56	50	35	1	2
57	47	37	1	1
58	48	36	1	1
59	54	32	1	3
60	42	41	1	3
61	43	40	1	1
62	45	38	1	1
63	50	34	1	3
64	53	32	1	4
65	47	36	1	2
66	56	30	1	4
67	42	40	1	1
68	48	35	1	5
69	43	39	1	3
70	54	31	1	5
71	49	34	1	3
72	45	37	1	4
73	46	36	1	3
74	57	29	1	1
75	59	28	1	2
76	53	31	1	2
77	48	34	1	3
78	56	29	1	2
79	47	34	1	5
80	42	38	1	3
81	55	29	1	4
82	59	27	1	1
83	43	37	1	2
84	56	28	1	4
85	46	34	1	2
86	44	35	1	2
87	45	34	1	1
88	56	27	1	3
89	42	36	1	3
90	48	31	1	3
91	45	33	1	2
92	53	28	1	2
93	57	26	1	4
94	39	38	1	4
95	57	26	1	2
96	59	25	1	4
97	43	34	1	5
98	44	33	1	3
99	50	29	1	2
100	45	32	1	3
101	60	24	1	3
102	42	34	1	1
103	57	25	1	2
104	49	29	1	2
105	43	33	1	2
106	47	30	1	1
107	44	32	1	3
108	38	37	1	3
109	54	26	1	4
110	39	36	1	4
111	40	35	1	1
112	45	31	1	1
113	58	24	1	1
114	48	29	1	1
115	58	24	1	3
116	42	33	1	2
117	46	30	1	2
118	60	23	1	9
119	43	32	1	5
120	38	36	1	3
121	39	35	1	4
122	44	31	1	1
123	40	34	1	2
124	41	33	1	5
125	50	27	1	4
126	37	36	1	4
127	38	35	1	3
128	51	26	1	1
129	39	34	1	2
130	49	27	1	1
131	44	30	1	2
132	45	29	1	3
133	48	27	1	1
134	37	35	1	3
135	38	34	1	2
136	43	30	1	1
137	46	28	1	1
138	39	33	1	1
139	40	32	1	2
140	44	29	1	4
141	53	24	1	1
142	36	35	1	2
143	42	30	1	1
144	37	34	1	2
145	39	32	1	5
146	48	26	1	2
147	46	27	1	1
148	40	31	1	1
149	41	30	1	1
150	49	25	1	3
151	36	34	1	3
152	47	26	1	3
153	37	33	1	2
154	53	23	1	2
155	38	32	1	3
156	39	31	1	3
157	40	30	1	3
158	46	26	1	1
159	35	34	1	1
160	44	27	1	5
161	37	32	1	1
162	38	31	1	3
163	49	24	1	2
164	56	21	1	4
165	39	30	1	3
166	43	27	1	2
167	40	29	1	2
168	50	23	1	1
169	41	28	1	4
170	44	26	1	1
171	38	30	1	1
172	39	29	1	3
173	49	23	1	4
174	56	20	1	2
175	43	26	1	4
176	36	31	1	1
177	53	21	1	5
178	37	30	1	2
179	48	23	1	2
180	38	29	1	2
181	58	19	1	3
182	50	22	1	2
183	42	26	1	2
184	39	28	1	5
185	34	32	1	1
186	35	31	1	1
187	47	23	1	3
188	36	30	1	2
189	41	26	1	1
190	38	28	1	2
191	59	18	1	4
192	53	20	1	3
193	46	23	1	6
194	48	22	1	4
195	39	27	1	4
196	35	30	1	1
197	55	19	1	3
198	36	29	1	1
199	40	26	1	4
200	37	28	1	1
201	49	21	1	3
202	57	18	1	3
203	38	27	1	2
204	32	32	1	1
205	33	31	1	1
206	34	30	1	3
207	60	17	1	2
208	35	29	1	3
209	39	26	1	2
210	46	22	1	1
211	36	28	1	3
212	42	24	1	4
213	40	25	1	3
214	37	27	1	3
215	32	31	1	3
216	55	18	1	2
217	43	23	1	5
218	38	26	1	3
219	47	21	1	1
220	58	17	1	2
221	36	27	1	3
222	44	22	1	5
223	46	21	1	2
224	32	30	1	4
225	33	29	1	2
226	38	25	1	3
227	43	22	1	1
228	35	27	1	2
229	45	21	1	3
230	41	23	1	3
231	47	20	1	1
232	52	18	1	3
233	39	24	1	1
234	32	29	1	2
235	37	25	1	3
236	44	21	1	2
237	46	20	1	2
238	40	23	1	2
239	34	27	1	1
240	57	16	1	2
241	35	26	1	3
242	43	21	1	3
243	45	20	1	2
244	60	15	1	2
245	31	29	1	3
246	33	27	1	1
247	37	24	1	2
248	34	26	1	3
249	49	18	1	3
250	35	25	1	3
251	46	19	1	3
252	58	15	1	2
253	31	28	1	6
254	51	17	1	1
255	48	18	1	2
256	32	27	1	1
257	41	21	1	1
258	39	22	1	2
259	33	26	1	3
260	39	22	1	6
261	45	19	1	1
262	34	25	1	2
263	53	16	1	3
264	35	24	1	4
265	56	15	1	2
266	42	20	1	3
267	40	21	1	2
268	31	27	1	3
269	38	22	1	3
270	44	19	1	5
271	32	26	1	1
272	46	18	1	3
273	33	25	1	3
274	55	15	1	3
275	39	21	1	7
276	51	16	1	4
277	48	17	1	3
278	37	22	1	4
279	58	14	1	2
280	29	28	1	3
281	30	27	1	4
282	45	18	1	3
283	30	27	1	2
284	47	17	1	2
285	42	19	1	3
286	36	22	1	1
287	44	18	1	1
288	36	22	1	3
289	44	18	1	4
290	29	27	1	3
291	34	23	1	4
292	30	26	1	1
293	60	13	1	2
294	41	19	1	4
295	37	21	1	1
296	31	25	1	2
297	43	18	1	3
298	32	24	1	2
299	45	17	1	4
300	38	20	1	2
301	33	23	1	3
302	28	27	1	2
303	36	21	1	2
304	42	18	1	1
305	29	26	1	1
306	30	25	1	2
307	44	17	1	2
308	34	22	1	4
309	57	13	1	1
310	37	20	1	3
311	41	18	1	4
312	32	23	1	3
313	46	16	1	3
314	35	21	1	2
315	49	15	1	1
316	35	21	1	2
317	43	17	1	5
318	27	27	1	1
319	56	13	1	3
320	33	22	1	7
321	29	25	1	3
322	38	19	1	2
323	48	15	1	1
324	40	18	1	2
325	55	13	1	6
326	34	21	1	1
327	31	23	1	1
328	32	22	1	4
329	37	19	1	3
330	39	18	1	4
331	27	26	1	4
332	28	25	1	3
333	50	14	1	2
334	35	20	1	1
335	29	24	1	2
336	33	21	1	4
337	46	15	1	1
338	30	23	1	2
339	49	14	1	2
340	36	19	1	1
341	34	20	1	1
342	45	15	1	3
343	48	14	1	1
344	28	24	1	1
345	32	21	1	2
346	28	24	1	4
347	48	14	1	2
348	29	23	1	1
349	37	18	1	3
350	35	19	1	1
351	39	17	1	4
352	55	12	1	2
353	30	22	1	3
354	33	20	1	2
355	55	12	1	2
356	44	15	1	2
357	47	14	1	6
358	41	16	1	2
359	31	21	1	1
360	26	25	1	3
361	36	18	1	2
362	34	19	1	2
363	38	17	1	1
364	28	23	1	2
365	46	14	1	3
366	40	16	1	3
367	32	20	1	3
368	40	16	1	3
369	29	22	1	3
370	37	17	1	1
371	33	19	1	2
372	25	25	1	2
373	26	24	1	3
374	39	16	1	2
375	27	23	1	1
376	31	20	1	1
377	44	14	1	1
378	28	22	1	5
379	36	17	1	2
380	34	18	1	1
381	36	17	1	1
382	47	13	1	2
383	43	14	1	1
384	25	24	1	2
385	60	10	1	4
386	25	24	1	2
387	46	13	1	2
388	35	17	1	2
389	28	21	1	6
390	39	15	1	2
391	29	20	1	1
392	34	17	1	1
393	32	18	1	4
394	36	16	1	1
395	32	18	1	3
396	52	11	1	1
397	44	13	1	1
398	30	19	1	2
399	38	15	1	3
400	33	17	1	4
401	35	16	1	2
402	28	20	1	3
403	40	14	1	4
404	31	18	1	2
405	37	15	1	1
406	24	23	1	4
407	29	19	1	2
408	39	14	1	3
409	34	16	1	1
410	32	17	1	3
411	27	20	1	4
412	41	13	1	1
413	38	14	1	1
414	28	19	1	2
415	24	22	1	3
416	31	17	1	2
417	25	21	1	4
418	40	13	1	3
419	37	14	1	2
420	43	12	1	3
421	27	19	1	1
422	32	16	1	2
423	34	15	1	1
424	30	17	1	5
425	23	22	1	4
426	36	14	1	2
427	25	20	1	1
428	33	15	1	4
429	26	19	1	1
430	29	17	1	4
431	23	21	1	1
432	40	12	1	2
433	30	16	1	2
434	32	15	1	2
435	30	16	1	2
436	32	15	1	4
437	30	16	1	4
438	28	17	1	3
439	34	14	1	2
440	36	13	1	2
441	39	12	1	4
442	31	15	1	2
443	29	16	1	3
444	33	14	1	1
445	24	19	1	2
446	35	13	1	2
447	45	10	1	2
448	25	18	1	3
449	32	14	1	2
450	37	12	1	4
451	26	17	1	2
452	44	10	1	2
453	22	20	1	4
454	23	19	1	1
455	24	18	1	1
456	36	12	1	3
457	27	16	1	1
458	24	18	1	4
459	25	17	1	5
460	30	14	1	3
461	21	20	1	3
462	23	18	1	1
463	25	16	1	4
464	20	20	1	5
465	21	19	1	1
466	22	18	1	1
467	36	11	1	2
468	28	14	1	1
469	23	17	1	2
470	26	15	1	1
471	30	13	1	2
472	26	15	1	4
473	32	12	1	2
474	24	16	1	2
475	32	12	1	3
476	20	19	1	2
477	38	10	1	4
478	21	18	1	3
479	27	14	1	2
480	25	15	1	5
481	22	17	1	3
482	31	12	1	2
483	23	16	1	2
484	19	19	1	1
485	20	18	1	1
486	36	10	1	1
487	22	16	1	2
488	27	13	1	3
489	35	10	1	2
490	29	12	1	1
491	34	10	1	3
492	20	17	1	2
493	21	16	1	2
494	33	10	1	3
495	22	15	1	3
496	19	17	1	2
497	23	14	1	2
498	21	15	1	4
499	24	13	1	2
500	26	12	1	5
501	31	10	1	3
502	28	11	1	3
503	30	10	1	1
504	20	15	1	2
505	23	13	1	4
506	27	11	1	3
507	21	14	1	4
508	17	17	1	3
509	24	12	1	2
510	18	16	1	3
511	24	12	1	3
512	19	15	1	1
513	20	14	1	2
514	21	13	1	2
515	18	15	1	2
516	22	12	1	1
517	20	13	1	4
518	26	10	1	1
519	16	16	1	2
520	19	13	1	3
521	22	11	1	2
522	16	15	1	1
523	17	14	1	4
524	17	13	1	3
525	22	10	1	1
526	18	12	1	3
527	15	14	1	2
528	19	11	1	1
529	16	13	1	1
530	20	10	1	2
531	16	12	1	4
532	16	11	1	5
533	17	10	1	2
534	14	12	1	2
535	13	11	1	2
